SYSTEM = Li3PS4 Structure Optimization

# Electronic relaxation
ENCUT = 520
EDIFF = 1E-6
ISMEAR = 0
SIGMA = 0.05
ALGO = Fast
NELM = 100

# Ionic relaxation
IBRION = 2
ISIF = 3
NSW = 200
EDIFFG = -0.01

# Write flags
LWAVE = .FALSE.
LCHARG = .TRUE.

# Parallelization
NCORE = 4
LREAL = Auto
